FILENAME:   /home/mcs001/s132664/testsets/IP/miplib2017/supportcase30.mps.gz
SETTINGS:   settings_final_nosym_norestarts
TIMELIMIT:  7200
OUTPUTNAME: final_miplib_symretope_if_extended_generating_set_cpx_v802__settings_final_nosym_norestarts__3__
BINNAME:    bin/sbcs.linux.x86_64.gnu.opt.cpx
BASENAME:   supportcase30.mps.gz
SEED:       3
@01 /home/mcs001/s132664/testsets/IP/miplib2017/supportcase30.mps.gz ===========
@02 supportcase30.mps.gz
@03 1686663621
SCIP version 8.0.2 [precision: 8 byte] [memory: block] [mode: optimized] [LP solver: CPLEX 20.1.0.0] [GitHash: 5f0473c]
Copyright (C) 2002-2022 Konrad-Zuse-Zentrum fuer Informationstechnik Berlin (ZIB)

Symretope propagation methods - (c) Jasper van Doornmalen, Christopher Hojny.
[GitHash: 2fd0484]

reading parameter file <../settings/settings_final_nosym_norestarts.set> ...

Changed settings:
limits/time = 7200
limits/restarts = 0
misc/usesymmetry = 0
randomization/randomseedshift = 3
constraints/orbisack/sepafreq = -1
constraints/symresack/sepafreq = -1
propagating/symmetry/detectsubgroups = FALSE
propagating/symmetry/usesymretopes = FALSE
propagating/symmetry/relabelsymretopes = 0
propagating/symmetry/ofsymcomptiming = 0
constraints/symretope/sepafreq = -1
constraints/symretope/peek = FALSE


solving problem ...

original problem has 1024 variables (1024 bin, 0 int, 0 impl, 0 cont) and 1028 constraints
presolving:
(round 1, exhaustive) 0 del vars, 0 del conss, 0 add conss, 0 chg bounds, 0 chg sides, 0 chg coeffs, 1024 upgd conss, 0 impls, 0 clqs
   (0.0s) probing: 51/1024 (5.0%) - 0 fixings, 0 aggregations, 0 implications, 0 bound changes
   (0.0s) probing aborted: 50/50 successive totally useless probings
presolving (2 rounds: 2 fast, 2 medium, 2 exhaustive):
 0 deleted vars, 0 deleted constraints, 0 added constraints, 0 tightened bounds, 0 added holes, 0 changed sides, 0 changed coefficients
 0 implications, 0 cliques
presolved problem has 1024 variables (1024 bin, 0 int, 0 impl, 0 cont) and 1028 constraints
      4 constraints of type <linear>
   1024 constraints of type <logicor>
transformed objective value is always integral (scale: 1)
Presolving Time: 0.04

 time | node  | left  |LP iter|LP it/n|mem/heur|mdpt |vars |cons |rows |cuts |sepa|confs|strbr|  dualbound   | primalbound  |  gap   | compl. 
  0.2s|     1 |     0 |     0 |     - |    14M |   0 |1024 |1028 |1028 |   0 |  0 |   0 |   0 | 0.000000e+00 |      --      |    Inf | unknown
  2.6s|     1 |     0 |  5703 |     - |    26M |   0 |1024 |1030 |1029 |   1 |  1 |   2 |   0 | 0.000000e+00 |      --      |    Inf | unknown
  2.7s|     1 |     0 |  5768 |     - |    33M |   0 |1024 |1031 |1030 |   2 |  2 |   3 |   0 | 0.000000e+00 |      --      |    Inf | unknown
  2.9s|     1 |     0 |  5811 |     - |    39M |   0 |1024 |1032 |1031 |   3 |  3 |   4 |   0 | 0.000000e+00 |      --      |    Inf | unknown
  3.2s|     1 |     0 |  5859 |     - |    45M |   0 |1024 |1033 |1033 |   5 |  4 |   5 |   0 | 0.000000e+00 |      --      |    Inf | unknown
  3.4s|     1 |     0 |  5912 |     - |    50M |   0 |1024 |1034 |1034 |   6 |  5 |   6 |   0 | 0.000000e+00 |      --      |    Inf | unknown
  3.6s|     1 |     0 |  5997 |     - |    56M |   0 |1024 |1035 |1036 |   8 |  6 |   7 |   0 | 0.000000e+00 |      --      |    Inf | unknown
  3.8s|     1 |     0 |  6085 |     - |    62M |   0 |1024 |1036 |1037 |   9 |  7 |   8 |   0 | 0.000000e+00 |      --      |    Inf | unknown
  4.1s|     1 |     0 |  6144 |     - |    68M |   0 |1024 |1037 |1038 |  10 |  8 |   9 |   0 | 0.000000e+00 |      --      |    Inf | unknown
  4.4s|     1 |     0 |  6258 |     - |    73M |   0 |1024 |1038 |1041 |  13 |  9 |  10 |   0 | 0.000000e+00 |      --      |    Inf | unknown
  4.6s|     1 |     0 |  6314 |     - |    79M |   0 |1024 |1039 |1043 |  15 | 10 |  11 |   0 | 0.000000e+00 |      --      |    Inf | unknown
  4.8s|     1 |     0 |  6355 |     - |    79M |   0 |1024 |1040 |1044 |  16 | 11 |  12 |   0 | 0.000000e+00 |      --      |    Inf | unknown
 10.9s|     1 |     2 | 19086 |     - |    79M |   0 |1024 |1041 |1044 |  16 | 11 |  13 |  19 | 0.000000e+00 |      --      |    Inf | unknown
 96.8s|   100 |   101 |350222 |3473.4 |   100M |  16 |1024 |1211 |1038 |  35 |  1 | 212 |  19 | 0.000000e+00 |      --      |    Inf | unknown
  155s|   200 |   201 |596843 |2967.3 |   103M |  32 |1024 |1244 |1038 |  40 |  1 | 252 |  19 | 0.000000e+00 |      --      |    Inf | unknown
 time | node  | left  |LP iter|LP it/n|mem/heur|mdpt |vars |cons |rows |cuts |sepa|confs|strbr|  dualbound   | primalbound  |  gap   | compl. 
  232s|   300 |   253 |  1074k|3573.6 |   110M |  54 |1024 |1232 |1046 |  62 |  1 | 286 |  19 | 0.000000e+00 |      --      |    Inf | unknown
  330s|   400 |   273 |  1676k|4186.8 |   110M |  62 |1024 |1232 |1046 |  62 |  0 | 286 |  19 | 0.000000e+00 |      --      |    Inf | unknown
  461s|   500 |   271 |  2525k|5049.2 |   110M |  62 |1024 |1286 |1046 |  62 |  0 | 370 |  19 | 0.000000e+00 |      --      |    Inf | unknown
  628s|   600 |   249 |  3601k|6002.4 |   110M |  63 |1024 |1285 |1046 |  62 |  1 | 370 |  19 | 0.000000e+00 |      --      |    Inf | unknown
  795s|   700 |   229 |  4664k|6664.6 |   110M |  63 |1024 |1284 |1043 |  63 |  1 | 370 |  19 | 0.000000e+00 |      --      |    Inf | unknown
  913s|   800 |   237 |  5455k|6820.5 |   113M |  63 |1024 |1269 |1038 |  67 |  1 | 407 |  19 | 0.000000e+00 |      --      |    Inf | unknown
 1012s|   900 |   251 |  6123k|6804.6 |   113M |  63 |1024 |1338 |1038 |  67 |  1 | 478 |  19 | 0.000000e+00 |      --      |    Inf | unknown
 1110s|  1000 |   254 |  6811k|6812.1 |   113M |  63 |1024 |1419 |1038 |  67 |  1 | 561 |  19 | 0.000000e+00 |      --      |    Inf | unknown
 1213s|  1100 |   253 |  7522k|6838.9 |    99M |  63 |1024 |1513 |1038 |  67 |  0 | 655 |  19 | 0.000000e+00 |      --      |    Inf | unknown
 1311s|  1200 |   256 |  8177k|6815.1 |    85M |  63 |1024 |1593 |1038 |  72 |  1 | 738 |  19 | 0.000000e+00 |      --      |    Inf | unknown
 1414s|  1300 |   262 |  8860k|6816.5 |    77M |  63 |1024 |1670 |1038 |  72 |  0 | 816 |  19 | 0.000000e+00 |      --      |    Inf | unknown
 1512s|  1400 |   276 |  9512k|6794.7 |    76M |  63 |1024 |1748 |1038 |  74 |  1 | 894 |  19 | 0.000000e+00 |      --      |    Inf | unknown
 1604s|  1500 |   290 | 10151k|6768.0 |    76M |  63 |1024 |1783 |1038 |  74 |  0 |1057 |  19 | 0.000000e+00 |      --      |    Inf | unknown
 1708s|  1600 |   294 | 10878k|6799.5 |    75M |  63 |1024 |1884 |1038 |  74 |  1 |1158 |  19 | 0.000000e+00 |      --      |    Inf | unknown
 1801s|  1700 |   300 | 11503k|6766.8 |    75M |  63 |1024 |1976 |1038 |  74 |  1 |1251 |  19 | 0.000000e+00 |      --      |    Inf | unknown
 time | node  | left  |LP iter|LP it/n|mem/heur|mdpt |vars |cons |rows |cuts |sepa|confs|strbr|  dualbound   | primalbound  |  gap   | compl. 
 1913s|  1800 |   293 | 12295k|6831.3 |    75M |  63 |1024 |2074 |1038 |  74 |  1 |1353 |  19 | 0.000000e+00 |      --      |    Inf | unknown
 2022s|  1900 |   298 | 13058k|6872.9 |    75M |  63 |1024 |2169 |1038 |  74 |  0 |1453 |  19 | 0.000000e+00 |      --      |    Inf | unknown
 2134s|  2000 |   302 | 13820k|6910.3 |    75M |  63 |1024 |2275 |1038 |  74 |  0 |1559 |  19 | 0.000000e+00 |      --      |    Inf | unknown
 2241s|  2100 |   303 | 14557k|6932.4 |    70M |  63 |1024 |2370 |1038 |  74 |  0 |1661 |  19 | 0.000000e+00 |      --      |    Inf | unknown
 2359s|  2200 |   297 | 15362k|6983.3 |    70M |  63 |1024 |2472 |1038 |  79 |  0 |1770 |  19 | 0.000000e+00 |      --      |    Inf | unknown
 2479s|  2300 |   297 | 16188k|7038.7 |    71M |  63 |1024 |2572 |1038 |  79 |  1 |1874 |  19 | 0.000000e+00 |      --      |    Inf | unknown
 2598s|  2400 |   284 | 17013k|7089.4 |    71M |  63 |1024 |2639 |1038 |  79 |  0 |1987 |  19 | 0.000000e+00 |      --      |    Inf | unknown
 2717s|  2500 |   283 | 17813k|7125.5 |    71M |  63 |1024 |2693 |1038 |  81 |  0 |2084 |  19 | 0.000000e+00 |      --      |    Inf | unknown
 2823s|  2600 |   285 | 18535k|7129.5 |    71M |  63 |1024 |2783 |1038 |  81 |  1 |2175 |  19 | 0.000000e+00 |      --      |    Inf | unknown
 2938s|  2700 |   275 | 19313k|7153.5 |    71M |  63 |1024 |2881 |1038 |  86 |  0 |2279 |  19 | 0.000000e+00 |      --      |    Inf | unknown
 3043s|  2800 |   275 | 20021k|7150.8 |    71M |  63 |1024 |2943 |1039 |  88 |  0 |2375 |  19 | 0.000000e+00 |      --      |    Inf | unknown
 3149s|  2900 |   273 | 20736k|7150.7 |    71M |  63 |1024 |3019 |1039 |  90 |  0 |2472 |  19 | 0.000000e+00 |      --      |    Inf | unknown
 3243s|  3000 |   264 | 21381k|7127.4 |    71M |  63 |1024 |3074 |1038 |  92 |  1 |2584 |  19 | 0.000000e+00 |      --      |    Inf | unknown
 3346s|  3100 |   252 | 22078k|7122.2 |    71M |  63 |1024 |3073 |1039 |  93 |  1 |2696 |  19 | 0.000000e+00 |      --      |    Inf | unknown
 3450s|  3200 |   253 | 22763k|7113.8 |    72M |  63 |1024 |3142 |1038 |  94 |  1 |2776 |  19 | 0.000000e+00 |      --      |    Inf | unknown
Restart triggered after 50 consecutive estimations that the remaining tree will be large
 time | node  | left  |LP iter|LP it/n|mem/heur|mdpt |vars |cons |rows |cuts |sepa|confs|strbr|  dualbound   | primalbound  |  gap   | compl. 
 3562s|  3300 |   249 | 23508k|7124.1 |    72M |  63 |1024 |3227 |1038 |  95 |  0 |2863 |  19 | 0.000000e+00 |      --      |    Inf | unknown
 3656s|  3400 |   255 | 24140k|7100.2 |    72M |  63 |1024 |3304 |1038 |  96 |  0 |2940 |  19 | 0.000000e+00 |      --      |    Inf | unknown
 3771s|  3500 |   256 | 24911k|7117.8 |    73M |  63 |1024 |3403 |1038 |  97 |  0 |3040 |  19 | 0.000000e+00 |      --      |    Inf | unknown
 3868s|  3600 |   257 | 25547k|7096.6 |    73M |  63 |1024 |3491 |1038 |  99 |  0 |3128 |  19 | 0.000000e+00 |      --      |    Inf | unknown
 3963s|  3700 |   259 | 26198k|7080.8 |    54M |  63 |1024 |3590 |1038 |  99 |  0 |3227 |  19 | 0.000000e+00 |      --      |    Inf | unknown
 4059s|  3800 |   271 | 26856k|7067.6 |    54M |  63 |1024 |3667 |1037 |  99 |  1 |3304 |  19 | 0.000000e+00 |      --      |    Inf | unknown
 4124s|  3900 |   285 | 27305k|7001.5 |    54M |  63 |1024 |3749 |1037 |  99 |  1 |3386 |  19 | 0.000000e+00 |      --      |    Inf | unknown
 4200s|  4000 |   296 | 27821k|6955.6 |    54M |  63 |1024 |3830 |1037 | 100 |  1 |3467 |  19 | 0.000000e+00 |      --      |    Inf | unknown
 4286s|  4100 |   300 | 28414k|6930.6 |    54M |  63 |1024 |3911 |1037 | 101 |  0 |3548 |  19 | 0.000000e+00 |      --      |    Inf | unknown
 4371s|  4200 |   310 | 29000k|6905.1 |    54M |  63 |1024 |3980 |1038 | 104 |  0 |3617 |  19 | 0.000000e+00 |      --      |    Inf | unknown
 4465s|  4300 |   295 | 29654k|6896.4 |    54M |  63 |1024 |4081 |1037 | 106 |  0 |3718 |  19 | 0.000000e+00 |      --      |    Inf | unknown
 4541s|  4400 |   308 | 30174k|6858.0 |    54M |  63 |1024 |4160 |1038 | 110 |  0 |3797 |  19 | 0.000000e+00 |      --      |    Inf | unknown
 4615s|  4500 |   320 | 30696k|6821.6 |    54M |  63 |1024 |4234 |1038 | 112 |  1 |3871 |  19 | 0.000000e+00 |      --      |    Inf | unknown
 4703s|  4600 |   324 | 31295k|6803.6 |    54M |  63 |1024 |4330 |1038 | 114 |  1 |3967 |  19 | 0.000000e+00 |      --      |    Inf | unknown
 4795s|  4700 |   322 | 31936k|6795.1 |    55M |  63 |1024 |4411 |1039 | 128 |  1 |4050 |  19 | 0.000000e+00 |      --      |    Inf | unknown
 time | node  | left  |LP iter|LP it/n|mem/heur|mdpt |vars |cons |rows |cuts |sepa|confs|strbr|  dualbound   | primalbound  |  gap   | compl. 
 4900s|  4800 |   301 | 32650k|6802.2 |    55M |  63 |1024 |4517 |1039 | 129 |  1 |4170 |  19 | 0.000000e+00 |      --      |    Inf | unknown
 4993s|  4900 |   315 | 33279k|6791.8 |    55M |  63 |1024 |4590 |1039 | 132 |  1 |4245 |  19 | 0.000000e+00 |      --      |    Inf | unknown
 5077s|  5000 |   318 | 33866k|6773.4 |    55M |  63 |1024 |4665 |1039 | 135 |  2 |4322 |  19 | 0.000000e+00 |      --      |    Inf | unknown
 5178s|  5100 |   324 | 34569k|6778.3 |    55M |  63 |1024 |4606 |1038 | 135 |  0 |4512 |  19 | 0.000000e+00 |      --      |    Inf | unknown
 5297s|  5200 |   318 | 35396k|6807.0 |    55M |  63 |1024 |4712 |1038 | 135 |  1 |4618 |  19 | 0.000000e+00 |      --      |    Inf | unknown
 5393s|  5300 |   312 | 36058k|6803.5 |    55M |  63 |1024 |4790 |1038 | 135 |  1 |4699 |  19 | 0.000000e+00 |      --      |    Inf | unknown
 5496s|  5400 |   302 | 36769k|6809.3 |    55M |  63 |1024 |4875 |1038 | 135 |  0 |4791 |  19 | 0.000000e+00 |      --      |    Inf | unknown
 5598s|  5500 |   291 | 37470k|6812.8 |    55M |  63 |1024 |4962 |1038 | 136 |  0 |4893 |  19 | 0.000000e+00 |      --      |    Inf | unknown
 5689s|  5600 |   295 | 38098k|6803.4 |    55M |  63 |1024 |5063 |1038 | 136 |  1 |4994 |  19 | 0.000000e+00 |      --      |    Inf | unknown
 5772s|  5700 |   300 | 38579k|6768.3 |    55M |  63 |1024 |5165 |1038 | 141 |  1 |5096 |  19 | 0.000000e+00 |      --      |    Inf | unknown
 5846s|  5800 |   310 | 39088k|6739.5 |    55M |  63 |1024 |5258 |1038 | 143 |  0 |5189 |  19 | 0.000000e+00 |      --      |    Inf | unknown
 5951s|  5900 |   312 | 39800k|6745.9 |    56M |  63 |1024 |5352 |1044 | 164 |  0 |5285 |  19 | 0.000000e+00 |      --      |    Inf | unknown
 6048s|  6000 |   297 | 40452k|6742.2 |    56M |  63 |1024 |5463 |1042 | 164 |  0 |5398 |  19 | 0.000000e+00 |      --      |    Inf | unknown
 6137s|  6100 |   295 | 41056k|6730.7 |    56M |  63 |1024 |5540 |1043 | 171 |  1 |5493 |  19 | 0.000000e+00 |      --      |    Inf | unknown
 6238s|  6200 |   277 | 41740k|6732.4 |    56M |  63 |1024 |5630 |1041 | 171 |  1 |5606 |  19 | 0.000000e+00 |      --      |    Inf | unknown
 time | node  | left  |LP iter|LP it/n|mem/heur|mdpt |vars |cons |rows |cuts |sepa|confs|strbr|  dualbound   | primalbound  |  gap   | compl. 
 6317s|  6300 |   281 | 42271k|6709.8 |    56M |  63 |1024 |5687 |1041 | 183 |  0 |5687 |  19 | 0.000000e+00 |      --      |    Inf | unknown
 6402s|  6400 |   289 | 42846k|6694.7 |    56M |  63 |1024 |5770 |1044 | 204 |  0 |5773 |  19 | 0.000000e+00 |      --      |    Inf | unknown
 6501s|  6500 |   292 | 43511k|6694.1 |    56M |  63 |1024 |5860 |1043 | 218 |  1 |5866 |  19 | 0.000000e+00 |      --      |    Inf | unknown
 6586s|  6600 |   281 | 44081k|6679.1 |    56M |  63 |1024 |5958 |1040 | 223 |  1 |5974 |  19 | 0.000000e+00 |      --      |    Inf | unknown
 6678s|  6700 |   280 | 44698k|6671.5 |    56M |  63 |1024 |6044 |1042 | 239 |  0 |6073 |  19 | 0.000000e+00 |      --      |    Inf | unknown
 6762s|  6800 |   275 | 45257k|6655.6 |    55M |  63 |1024 |6101 |1044 | 253 |  1 |6178 |  19 | 0.000000e+00 |      --      |    Inf | unknown
 6835s|  6900 |   301 | 45753k|6630.9 |    55M |  63 |1024 |6140 |1041 | 274 |  1 |6239 |  19 | 0.000000e+00 |      --      |    Inf | unknown
 6905s|  7000 |   329 | 46223k|6603.3 |    55M |  63 |1024 |6198 |1039 | 292 |  2 |6302 |  19 | 0.000000e+00 |      --      |    Inf | unknown
 6972s|  7100 |   341 | 46688k|6575.8 |    55M |  63 |1024 |6293 |1039 | 294 |  1 |6397 |  19 | 0.000000e+00 |      --      |    Inf | unknown
 7045s|  7200 |   355 | 47189k|6554.2 |    55M |  63 |1024 |6377 |1039 | 296 |  1 |6481 |  19 | 0.000000e+00 |      --      |    Inf | unknown
 7121s|  7300 |   357 | 47710k|6535.7 |    55M |  63 |1024 |6488 |1042 | 304 |  0 |6592 |  19 | 0.000000e+00 |      --      |    Inf | unknown

SCIP Status        : solving was interrupted [time limit reached]
Solving Time (sec) : 7200.00
Solving Nodes      : 7397
Primal Bound       : +1.00000000000000e+20 (0 solutions)
Dual Bound         : +0.00000000000000e+00
Gap                : infinite
SCIP Status        : solving was interrupted [time limit reached]
Total Time         :    7200.01
  solving          :    7200.00
  presolving       :       0.04 (included in solving)
  reading          :       0.01
  copying          :       0.69 (106 #copies) (minimal 0.00, maximal 0.01, average 0.01)
Original Problem   :
  Problem name     : supportcase30
  Variables        : 1024 (1024 binary, 0 integer, 0 implicit integer, 0 continuous)
  Constraints      : 1028 initial, 1028 maximal
  Objective        : minimize, 0 non-zeros (abs.min = 1e+20, abs.max = -1e+20)
Presolved Problem  :
  Problem name     : t_supportcase30
  Variables        : 1024 (1024 binary, 0 integer, 0 implicit integer, 0 continuous)
  Constraints      : 1028 initial, 6589 maximal
  Objective        : minimize, 0 non-zeros (abs.min = 1e+20, abs.max = -1e+20)
  Nonzeros         : 12288 constraint, 0 clique table
Presolvers         :   ExecTime  SetupTime  Calls  FixedVars   AggrVars   ChgTypes  ChgBounds   AddHoles    DelCons    AddCons   ChgSides   ChgCoefs
  boundshift       :       0.00       0.00      0          0          0          0          0          0          0          0          0          0
  convertinttobin  :       0.00       0.00      0          0          0          0          0          0          0          0          0          0
  domcol           :       0.01       0.00      1          0          0          0          0          0          0          0          0          0
  dualagg          :       0.00       0.00      0          0          0          0          0          0          0          0          0          0
  dualcomp         :       0.00       0.00      0          0          0          0          0          0          0          0          0          0
  dualinfer        :       0.00       0.00      0          0          0          0          0          0          0          0          0          0
  dualsparsify     :       0.00       0.00      1          0          0          0          0          0          0          0          0          0
  gateextraction   :       0.00       0.00      0          0          0          0          0          0          0          0          0          0
  implics          :       0.00       0.00      2          0          0          0          0          0          0          0          0          0
  inttobinary      :       0.00       0.00      0          0          0          0          0          0          0          0          0          0
  qpkktref         :       0.00       0.00      0          0          0          0          0          0          0          0          0          0
  redvub           :       0.00       0.00      0          0          0          0          0          0          0          0          0          0
  sparsify         :       0.01       0.00      1          0          0          0          0          0          0          0          0          0
  stuffing         :       0.00       0.00      0          0          0          0          0          0          0          0          0          0
  trivial          :       0.00       0.00      2          0          0          0          0          0          0          0          0          0
  tworowbnd        :       0.00       0.00      0          0          0          0          0          0          0          0          0          0
  dualfix          :       0.00       0.00      2          0          0          0          0          0          0          0          0          0
  genvbounds       :       0.00       0.00      0          0          0          0          0          0          0          0          0          0
  probing          :       0.00       0.00      1          0          0          0          0          0          0          0          0          0
  pseudoobj        :       0.00       0.00      0          0          0          0          0          0          0          0          0          0
  symmetry         :       0.00       0.00      0          0          0          0          0          0          0          0          0          0
  vbounds          :       0.00       0.00      0          0          0          0          0          0          0          0          0          0
  linear           :       0.01       0.00      4          0          0          0          0          0          0          0          0          0
  logicor          :       0.00       0.00      3          0          0          0          0          0          0          0          0          0
  benders          :       0.00       0.00      0          0          0          0          0          0          0          0          0          0
  components       :       0.00       0.00      1          0          0          0          0          0          0          0          0          0
  root node        :          -          -      -          0          -          -          0          -          -          -          -          -
Constraints        :     Number  MaxNumber  #Separate #Propagate    #EnfoLP    #EnfoRelax  #EnfoPS    #Check   #ResProp    Cutoffs    DomReds       Cuts    Applied      Conss   Children
  benderslp        :          0          0          0          0       3938          0          0        354          0          0          0          0          0          0          0
  integral         :          0          0          0          0       3938          0          0        354          0          0          0          0          0          0       7876
  linear           :          4+        14         11      37696          0          0          0        350      29193        119          0          0          0          0          0
  logicor          :       1024+      6585         11      14019          0          0          0          0      17119        406       5362          0          0          0          0
  benders          :          0          0          0          0          0          0          0          0          0          0          0          0          0          0          0
  countsols        :          0          0          0          0          0          0          0          0          0          0          0          0          0          0          0
  components       :          0          0          0          0          0          0          0          0          0          0          0          0          0          0          0
Constraint Timings :  TotalTime  SetupTime   Separate  Propagate     EnfoLP     EnfoPS     EnfoRelax   Check    ResProp    SB-Prop
  benderslp        :       0.00       0.00       0.00       0.00       0.00       0.00       0.00       0.00       0.00       0.00
  integral         :       2.31       0.00       0.00       0.00       2.31       0.00       0.00       0.00       0.00       0.00
  linear           :       0.31       0.00       0.00       0.16       0.00       0.00       0.00       0.00       0.15       0.00
  logicor          :       0.34       0.00       0.00       0.30       0.00       0.00       0.00       0.00       0.03       0.00
  benders          :       0.00       0.00       0.00       0.00       0.00       0.00       0.00       0.00       0.00       0.00
  countsols        :       0.00       0.00       0.00       0.00       0.00       0.00       0.00       0.00       0.00       0.00
  components       :       0.00       0.00       0.00       0.00       0.00       0.00       0.00       0.00       0.00       0.00
Propagators        : #Propagate   #ResProp    Cutoffs    DomReds
  dualfix          :          1          0          0          0
  genvbounds       :          0          0          0          0
  nlobbt           :          0          0          0          0
  obbt             :          0          0          0          0
  probing          :          0          0          0          0
  pseudoobj        :          0          0          0          0
  redcost          :          0          0          0          0
  rootredcost      :          0          0          0          0
  symmetry         :          0          0          0          0
  vbounds          :          0          0          0          0
Propagator Timings :  TotalTime  SetupTime   Presolve  Propagate    ResProp    SB-Prop
  dualfix          :       0.00       0.00       0.00       0.00       0.00       0.00
  genvbounds       :       0.01       0.00       0.00       0.01       0.00       0.00
  nlobbt           :       0.00       0.00       0.00       0.00       0.00       0.00
  obbt             :       0.00       0.00       0.00       0.00       0.00       0.00
  probing          :       0.00       0.00       0.00       0.00       0.00       0.00
  pseudoobj        :       0.01       0.00       0.00       0.01       0.00       0.00
  redcost          :       0.00       0.00       0.00       0.00       0.00       0.00
  rootredcost      :       0.00       0.00       0.00       0.00       0.00       0.00
  symmetry         :       0.00       0.00       0.00       0.00       0.00       0.00
  vbounds          :       0.03       0.00       0.00       0.03       0.00       0.00
Conflict Analysis  :       Time      Calls    Success    DomReds  Conflicts   Literals    Reconvs ReconvLits   Dualrays   Nonzeros   LP Iters   (pool size: [10000,10000])
  propagation      :       0.09        406        370          -        536       40.9          2       32.0          -          -          -
  infeasible LP    :       1.39       3586       3318          -      10279       25.2          4       22.0          0        0.0          0
  bound exceed. LP :       0.00          0          0          -          0        0.0          0        0.0          0        0.0          0
  strong branching :       0.00          0          0          -          0        0.0          0        0.0          -          -          0
  pseudo solution  :       0.00          0          0          -          0        0.0          0        0.0          -          -          -
  applied globally :       0.01          -          -          0       6726       25.5          -          -          0          -          -
  applied locally  :          -          -          -          0          3      231.7          -          -          0          -          -
Separators         :   ExecTime  SetupTime      Calls  RootCalls    Cutoffs    DomReds  FoundCuts ViaPoolAdd  DirectAdd    Applied ViaPoolApp  DirectApp      Conss
  cut pool         :       1.16          -        556         20          -          -       3681       1701          -          -          -          -          -    (maximal pool size:       2970)
  aggregation      :       1.80       0.00         50         11          0          0          0          0          0          0          0          0          0
  > cmir           :          -          -          -          -          -          -          -          0          0          0          0          0          -
  > flowcover      :          -          -          -          -          -          -          -          0          0          0          0          0          -
  > knapsackcover  :          -          -          -          -          -          -          -          0          0          0          0          0          -
  cgmip            :       0.00       0.00          0          0          0          0          0          0          0          0          0          0          0
  clique           :       0.00       0.00          1          1          0          0          0          0          0          0          0          0          0
  closecuts        :       0.00       0.00          0          0          0          0          0          0          0          0          0          0          0
  convexproj       :       0.00       0.00          0          0          0          0          0          0          0          0          0          0          0
  disjunctive      :       0.00       0.00          0          0          0          0          0          0          0          0          0          0          0
  eccuts           :       0.00       0.00          0          0          0          0          0          0          0          0          0          0          0
  gauge            :       0.00       0.00          0          0          0          0          0          0          0          0          0          0          0
  gomory           :       1.80       0.00         49         10          0          0       3953       1447        300         21         20          1          0
  > gomorymi       :          -          -          -          -          -          -          -        975        150         20         19          1          -
  > strongcg       :          -          -          -          -          -          -          -        472        150          1          1          0          -
  impliedbounds    :       0.00       0.00         50         11          0          0          0          0          0          0          0          0          0
  interminor       :       0.00       0.00          0          0          0          0          0          0          0          0          0          0          0
  intobj           :       0.00       0.00          0          0          0          0          0          0          0          0          0          0          0
  mcf              :       0.00       0.00          1          1          0          0          0          0          0          0          0          0          0
  minor            :       0.00       0.00          0          0          0          0          0          0          0          0          0          0          0
  mixing           :       0.00       0.00          0          0          0          0          0          0          0          0          0          0          0
  oddcycle         :       0.00       0.00          0          0          0          0          0          0          0          0          0          0          0
  rapidlearning    :      79.20       0.00        100          1          0          0          0          0          0          0          0          0        810
  rlt              :       0.00       0.00         10         10          0          0          0          0          0          0          0          0          0
  zerohalf         :       1.12       0.00         50         11          0          0         74        254         46        296        251         45          0
Cutselectors       :   ExecTime  SetupTime      Calls  RootCalls   Selected     Forced   Filtered  RootSelec   RootForc   RootFilt 
  hybrid           :       0.01       0.00        175         11        317          0       1730         16          0       1262
Pricers            :   ExecTime  SetupTime      Calls       Vars
  problem variables:       0.00          -          0          0
Branching Rules    :   ExecTime  SetupTime   BranchLP  BranchExt   BranchPS    Cutoffs    DomReds       Cuts      Conss   Children
  allfullstrong    :       0.00       0.00          0          0          0          0          0          0          0          0
  cloud            :       0.00       0.00          0          0          0          0          0          0          0          0
  distribution     :       0.00       0.00          0          0          0          0          0          0          0          0
  fullstrong       :       0.00       0.00          0          0          0          0          0          0          0          0
  inference        :       0.00       0.00          0          0          0          0          0          0          0          0
  leastinf         :       0.00       0.00          0          0          0          0          0          0          0          0
  lookahead        :       0.00       0.00          0          0          0          0          0          0          0          0
  mostinf          :       0.00       0.00          0          0          0          0          0          0          0          0
  multaggr         :       0.00       0.00          0          0          0          0          0          0          0          0
  nodereopt        :       0.00       0.00          0          0          0          0          0          0          0          0
  pscost           :       0.00       0.00          0          0          0          0          0          0          0          0
  random           :       0.00       0.00          0          0          0          0          0          0          0          0
  relpscost        :       2.30       0.00       3938          0          0          0          0          0          0       7876
  vanillafullstrong:       0.00       0.00          0          0          0          0          0          0          0          0
Primal Heuristics  :   ExecTime  SetupTime      Calls      Found       Best
  LP solutions     :       0.00          -          -          0          0
  relax solutions  :       0.00          -          -          0          0
  pseudo solutions :       0.00          -          -          0          0
  strong branching :       0.00          -          -          0          0
  actconsdiving    :       0.00       0.00          0          0          0
  adaptivediving   :      16.73       0.00         10          0          0
  alns             :      15.05       0.00          5          0          0
  bound            :       0.00       0.00          0          0          0
  clique           :       0.00       0.00          0          0          0
  coefdiving       :       0.00       0.00          0          0          0
  completesol      :       0.00       0.00          0          0          0
  conflictdiving   :       8.01       0.00         11          0          0
  crossover        :       0.00       0.00          0          0          0
  dins             :       0.00       0.00          0          0          0
  distributiondivin:       9.69       0.00          5          0          0
  dps              :       0.00       0.00          0          0          0
  dualval          :       0.00       0.00          0          0          0
  farkasdiving     :       0.00       0.00          0          0          0
  feaspump         :       7.11       0.00          3          0          0
  fixandinfer      :       0.00       0.00          0          0          0
  fracdiving       :       6.60       0.00          8          0          0
  gins             :       0.00       0.00          0          0          0
  guideddiving     :       0.00       0.00          0          0          0
  indicator        :       0.00       0.00          0          0          0
  intdiving        :       0.00       0.00          0          0          0
  intshifting      :       0.00       0.00          0          0          0
  linesearchdiving :       8.30       0.00          6          0          0
  localbranching   :       0.00       0.00          0          0          0
  locks            :       0.01       0.00          1          0          0
  lpface           :       0.01       0.00          0          0          0
  mpec             :       0.00       0.00          0          0          0
  multistart       :       0.00       0.00          0          0          0
  mutation         :       0.00       0.00          0          0          0
  nlpdiving        :       0.00       0.00          0          0          0
  objpscostdiving  :      22.63       0.00          3          0          0
  octane           :       0.00       0.00          0          0          0
  ofins            :       0.00       0.00          0          0          0
  oneopt           :       0.00       0.00          0          0          0
  padm             :       0.00       0.00          0          0          0
  proximity        :       0.00       0.00          0          0          0
  pscostdiving     :       7.50       0.00          6          0          0
  randrounding     :       0.05       0.00        359          0          0
  rens             :       2.35       0.00          1          0          0
  reoptsols        :       0.00       0.00          0          0          0
  repair           :       0.00       0.00          0          0          0
  rins             :       0.00       0.00          0          0          0
  rootsoldiving    :       5.38       0.00          3          0          0
  rounding         :       0.55       0.00        876          0          0
  shiftandpropagate:       0.00       0.00          1          0          0
  shifting         :       0.86       0.00        275          0          0
  simplerounding   :       0.00       0.00          0          0          0
  subnlp           :       0.00       0.00          0          0          0
  trivial          :       0.00       0.00          2          0          0
  trivialnegation  :       0.00       0.00          0          0          0
  trustregion      :       0.00       0.00          0          0          0
  trysol           :       0.00       0.00          0          0          0
  twoopt           :       0.00       0.00          0          0          0
  undercover       :       0.00       0.00          0          0          0
  vbounds          :       0.00       0.00          0          0          0
  veclendiving     :      11.19       0.00          6          0          0
  zeroobj          :       0.00       0.00          0          0          0
  zirounding       :       0.10       0.00       1000          0          0
  other solutions  :          -          -          -          0          -
LP                 :       Time      Calls Iterations  Iter/call   Iter/sec  Time-0-It Calls-0-It    ItLimit
  primal LP        :       0.87         20          0       0.00       0.00       0.87         20
  dual LP          :    6985.07       7532   47691655    6332.71    6827.66       0.14          1
  lex dual LP      :       0.00          0          0       0.00          -
  barrier LP       :       0.00          0          0       0.00          -       0.00          0
  resolve instable :       0.00          0          0       0.00          -
  diving/probing LP:     101.83        919     565275     615.10    5551.00
  strong branching :       1.57         19       8289     436.26    5275.94          -          -          7
    (at root node) :          -         19       8289     436.26          -
  conflict analysis:       0.00          0          0       0.00          -
B&B Tree           :
  number of runs   :          1
  nodes            :       7397 (3938 internal, 3459 leaves)
  feasible leaves  :          0
  infeas. leaves   :       3458
  objective leaves :          0
  nodes (total)    :       7397 (3938 internal, 3459 leaves)
  nodes left       :        377
  max depth        :         63
  max depth (total):         63
  backtracks       :       1276 (17.3%)
  early backtracks :          0 (0.0%)
  nodes exc. ref.  :          0 (0.0%)
  delayed cutoffs  :        104
  repropagations   :      10292 (4526 domain reductions, 83 cutoffs)
  avg switch length:       4.65
  switching time   :       1.06
Root Node          :
  First LP value   : +0.00000000000000e+00
  First LP Iters   :          0
  First LP Time    :       0.14
  Final Dual Bound : +0.00000000000000e+00
  Final Root Iters :       6355
  Root LP Estimate : +1.17235515942445e-02
Solution           :
  Solutions found  :          0 (0 improvements)
  Primal Bound     :          -
  Dual Bound       : +0.00000000000000e+00
  Gap              :   infinite
Integrals          :      Total       Avg%
  primal-dual      :  720000.22     100.00
  primal-ref       :          -          - (not evaluated)
  dual-ref         :          -          - (not evaluated)
written solution information to file <results/final_miplib_symretope_if_extended_generating_set_cpx_v802__settings_final_nosym_norestarts__3__supportcase30.mps.gz.sol>
@04 1686670821
